p cnf 149 491
c t mc
-4 2 0
-4 3 0
-2 -3 4 0
5 6 -7 0
-5 -6 -7 0
5 -6 7 0
-5 6 7 0
8 4 0
8 7 0
-4 -7 -8 0
10 -8 0
10 9 0
8 -9 -10 0
-12 10 0
-12 -11 0
-10 11 12 0
-14 -12 0
-14 13 0
12 -13 14 0
-17 15 0
-17 -16 0
-15 16 17 0
18 -14 0
18 -17 0
14 17 -18 0
-1 -18 -19 0
1 18 -19 0
-1 18 19 0
1 -18 19 0
20 21 0
-20 21 0
-23 21 0
-23 22 0
-21 -22 23 0
-19 23 -24 0
19 -23 -24 0
-19 -23 24 0
19 23 24 0
25 -21 0
25 2 0
21 -2 -25 0
-26 -3 0
-26 25 0
3 -25 26 0
13 28 0
-13 28 0
-27 28 -29 0
27 -28 -29 0
-27 -28 29 0
27 28 29 0
-13 29 -30 0
13 -29 -30 0
-13 -29 30 0
13 29 30 0
-31 -13 0
-31 -30 0
13 30 31 0
-32 31 0
-32 6 0
-31 -6 32 0
-33 26 0
-33 -32 0
-26 32 33 0
-34 -24 0
-34 -33 0
24 33 34 0
-37 -35 0
-37 -36 0
35 36 37 0
38 11 0
38 37 0
-11 -37 -38 0
17 -36 -39 0
-17 36 -39 0
17 36 39 0
-17 -36 39 0
-40 -39 0
-40 9 0
39 -9 40 0
41 40 0
41 -8 0
-40 8 -41 0
-42 -25 0
-42 10 0
25 -10 42 0
43 42 0
43 -3 0
-42 3 -43 0
41 43 -44 0
-41 -43 -44 0
41 -43 44 0
-41 43 44 0
-45 38 0
-45 44 0
-38 -44 45 0
-37 -28 -46 0
37 28 -46 0
-37 28 46 0
37 -28 46 0
48 -47 0
48 20 0
47 -20 -48 0
49 48 0
49 3 0
-48 -3 -49 0
50 -46 0
50 -49 0
46 49 -50 0
-23 13 -51 0
23 -13 -51 0
-23 -13 51 0
23 13 51 0
-52 22 0
-52 51 0
-22 -51 52 0
-50 -52 -53 0
50 52 -53 0
-50 52 53 0
50 -52 53 0
-55 -54 0
-55 3 0
54 -3 55 0
-56 55 0
-56 -2 0
-55 2 56 0
-57 46 0
-57 -56 0
-46 56 57 0
-59 -58 0
-59 16 0
58 -16 59 0
59 22 -60 0
-59 -22 -60 0
59 -22 60 0
-59 22 60 0
-61 60 0
-61 58 0
-60 -58 61 0
-62 20 0
-62 -3 0
-20 3 62 0
61 -62 -63 0
-61 62 -63 0
61 62 63 0
-61 -62 63 0
-64 -63 0
-64 46 0
63 -46 64 0
65 -57 0
65 -64 0
57 64 -65 0
-53 -65 -66 0
53 65 -66 0
-53 65 66 0
53 -65 66 0
67 61 0
67 -39 0
-61 39 -67 0
-68 -15 0
-68 58 0
15 -58 68 0
-67 -68 -69 0
67 68 -69 0
-67 68 69 0
67 -68 69 0
-70 -66 0
-70 69 0
66 -69 70 0
-71 45 0
-71 70 0
-45 -70 71 0
72 34 0
72 71 0
-34 -71 -72 0
21 1 -73 0
-21 -1 -73 0
21 -1 73 0
-21 1 73 0
-74 29 0
-74 6 0
-29 -6 74 0
73 -74 -75 0
-73 74 -75 0
73 74 75 0
-73 -74 75 0
-76 -9 0
-76 -13 0
9 13 76 0
77 8 0
77 16 0
-8 -16 -77 0
78 -5 0
78 -47 0
5 47 -78 0
77 -78 -79 0
-77 78 -79 0
77 78 79 0
-77 -78 79 0
80 -76 0
80 79 0
76 -79 -80 0
-81 -75 0
-81 80 0
75 -80 81 0
-82 36 0
-82 15 0
-36 -15 82 0
83 3 0
83 -17 0
-3 17 -83 0
-11 16 -84 0
11 -16 -84 0
-11 -16 84 0
11 16 84 0
85 -83 0
85 84 0
83 -84 -85 0
-82 -85 -86 0
82 85 -86 0
-82 85 86 0
82 -85 86 0
-87 37 0
-87 -17 0
-37 17 87 0
88 86 0
88 87 0
-86 -87 -88 0
16 -9 -89 0
-16 9 -89 0
16 9 89 0
-16 -9 89 0
89 -37 -90 0
-89 37 -90 0
89 37 90 0
-89 -37 90 0
91 49 0
91 90 0
-49 -90 -91 0
-56 -91 -92 0
56 91 -92 0
-56 91 92 0
56 -91 92 0
-93 -88 0
-93 -92 0
88 92 93 0
94 -17 0
94 -89 0
17 89 -94 0
4 -90 -95 0
-4 90 -95 0
4 90 95 0
-4 -90 95 0
-96 -14 0
-96 95 0
14 -95 96 0
-97 94 0
-97 96 0
-94 -96 97 0
-98 -35 0
-98 -47 0
35 47 98 0
99 6 0
99 11 0
-6 -11 -99 0
98 -99 -100 0
-98 99 -100 0
98 99 100 0
-98 -99 100 0
36 19 -101 0
-36 -19 -101 0
36 -19 101 0
-36 19 101 0
100 101 -102 0
-100 -101 -102 0
100 -101 102 0
-100 101 102 0
-103 -97 0
-103 -102 0
97 102 103 0
9 -36 -104 0
-9 36 -104 0
9 36 104 0
-9 -36 104 0
105 -20 -106 0
-105 20 -106 0
105 20 106 0
-105 -20 106 0
107 104 0
107 106 0
-104 -106 -107 0
-103 -107 -108 0
103 107 -108 0
-103 107 108 0
103 -107 108 0
-22 -29 -109 0
22 29 -109 0
-22 29 109 0
22 -29 109 0
110 -23 0
110 -83 0
23 83 -110 0
109 -110 -111 0
-109 110 -111 0
109 110 111 0
-109 -110 111 0
-112 -108 0
-112 111 0
108 -111 112 0
113 -93 0
113 112 0
93 -112 -113 0
-3 15 -114 0
3 -15 -114 0
-3 -15 114 0
3 15 114 0
-115 -58 0
-115 114 0
58 -114 115 0
-116 100 0
-116 19 0
-100 -19 116 0
117 -115 0
117 116 0
115 -116 -117 0
118 -35 0
118 58 0
35 -58 -118 0
-119 -118 0
-119 23 0
118 -23 119 0
119 -114 -120 0
-119 114 -120 0
119 114 120 0
-119 -114 120 0
121 46 0
121 -56 0
-46 56 -121 0
121 -30 -122 0
-121 30 -122 0
121 30 122 0
-121 -30 122 0
123 120 0
123 -122 0
-120 122 -123 0
-124 -35 0
-124 62 0
35 -62 124 0
125 124 0
125 28 0
-124 -28 -125 0
126 -42 0
126 -9 0
42 9 -126 0
-127 -125 0
-127 126 0
125 -126 127 0
-128 -123 0
-128 127 0
123 -127 128 0
-15 -62 -129 0
15 62 -129 0
-15 62 129 0
15 -62 129 0
130 85 0
130 99 0
-85 -99 -130 0
131 -129 0
131 -130 0
129 130 -131 0
-133 -28 0
-133 5 0
28 -5 133 0
-132 133 -134 0
132 -133 -134 0
-132 -133 134 0
132 133 134 0
-135 131 0
-135 -134 0
-131 134 135 0
48 25 -136 0
-48 -25 -136 0
48 -25 136 0
-48 25 136 0
137 -135 0
137 -136 0
135 136 -137 0
42 -30 -138 0
-42 30 -138 0
42 30 138 0
-42 -30 138 0
139 -119 0
139 12 0
119 -12 -139 0
61 -139 -140 0
-61 139 -140 0
61 139 140 0
-61 -139 140 0
-138 -140 -141 0
138 140 -141 0
-138 140 141 0
138 -140 141 0
-137 141 -142 0
137 -141 -142 0
-137 -141 142 0
137 141 142 0
-143 -128 0
-143 142 0
128 -142 143 0
144 117 0
144 -143 0
-117 143 -144 0
145 36 0
145 -90 0
-36 90 -145 0
-146 -144 0
-146 -145 0
144 145 146 0
147 113 0
147 146 0
-113 -146 -147 0
-148 81 0
-148 147 0
-81 -147 148 0
149 -72 0
149 -148 0
72 148 -149 0
-56 -96 69 8 -103 -109 112 0
22 -7 -45 9 109 -64 126 0
-5 43 -68 0
46 -74 70 -5 0
4 106 -114 -147 -115 -11 -66 -126 -3 48 0
-148 127 -8 65 15 5 103 -96 106 -126 0
62 -128 -56 -140 -35 -25 -77 0
69 -147 119 99 -62 -145 -144 0
32 121 41 20 34 -5 0
-96 -136 -43 17 94 2 -134 -114 0
-115 -90 -140 -27 138 147 0
-51 -16 102 0
25 -39 38 119 126 -32 124 0
-106 60 -122 22 0
47 -114 -135 -38 -27 0
34 80 57 8 139 -145 90 -148 65 3 0
139 -137 -31 -41 15 85 102 -101 -1 0
43 -133 -32 -110 93 0
144 -38 -90 -70 -47 -27 128 18 15 73 0
147 -85 -105 -110 88 2 -1 0
-39 67 106 -28 43 0
-80 124 -6 -51 -20 -50 53 97 0
-110 50 30 90 94 5 91 -74 -129 34 0
14 -126 94 60 -100 134 -42 0
-101 -146 -112 13 44 0
78 63 -149 -119 99 -29 25 -148 0
-78 70 -143 -42 0
51 63 -130 113 -72 0
147 -96 -141 -7 -121 135 0
24 -101 -13 0
-19 76 24 48 -23 -78 -100 -94 -123 0
-53 -109 143 0
24 -83 -96 71 127 137 0
118 -71 -79 -15 76 -48 -149 73 0
-134 112 4 -66 -102 0
-89 -87 99 0
136 -125 45 0
-95 -37 -73 -130 16 115 74 -46 87 0
-130 -12 -89 0
-23 -32 -53 -29 -101 0
-67 29 -62 26 111 112 18 -77 -132 0
-99 22 61 20 76 -54 0
112 -28 -6 -70 41 -22 -128 0
65 -122 48 143 140 -103 0
-144 -65 7 39 -106 -123 0
-61 -71 0
-25 104 -12 0
107 118 15 0
-28 17 -149 0
138 120 -85 -139 -40 -48 0
65 94 47 132 0
-135 -90 13 -37 78 74 -87 49 88 127 0
123 85 73 -19 0
64 144 98 106 0
-90 -13 74 -141 69 0
83 -54 86 7 -12 -68 -73 -45 103 113 0
46 -75 -53 -142 128 -74 -29 0
59 -55 -51 106 -44 0
85 24 110 74 141 143 133 -43 0
77 -98 -135 0
139 -90 121 -83 0
110 -5 -111 -65 0
-106 76 -72 15 -68 -3 -110 0
-73 114 3 -141 82 -81 58 0
149 0
